Set parameter TokenServer to value "hpc-licenses.hpcc.usc.edu"
Set parameter TimeLimit to value 3600
Gurobi Optimizer version 9.5.1 build v9.5.1rc2 (linux64)
Thread count: 20 physical cores, 20 logical processors, using up to 20 threads
Optimize a model with 6007 rows, 4529 columns and 24534 nonzeros
Model fingerprint: 0xca4d38fb
Variable types: 4506 continuous, 23 integer (23 binary)
Coefficient statistics:
  Matrix range     [1e+00, 1e+00]
  Objective range  [3e-06, 1e+00]
  Bounds range     [1e+00, 1e+00]
  RHS range        [1e+00, 2e+02]
Presolve removed 1520 rows and 1515 columns
Presolve time: 0.06s
Presolved: 4487 rows, 3014 columns, 21975 nonzeros
Variable types: 2994 continuous, 20 integer (20 binary)
Found heuristic solution: objective 262.6741819
Found heuristic solution: objective 263.0755798

Root relaxation: objective 2.767817e+02, 2791 iterations, 0.10 seconds (0.12 work units)

    Nodes    |    Current Node    |     Objective Bounds      |     Work
 Expl Unexpl |  Obj  Depth IntInf | Incumbent    BestBd   Gap | It/Node Time

     0     0  276.78172    0    2  263.07558  276.78172  5.21%     -    0s
     0     0  276.65183    0    2  263.07558  276.65183  5.16%     -    0s
     0     0  276.46002    0    2  263.07558  276.46002  5.09%     -    0s
     0     0  276.45821    0    2  263.07558  276.45821  5.09%     -    0s
H    0     0                     264.1732354  276.45821  4.65%     -    0s
     0     0  276.37523    0    2  264.17324  276.37523  4.62%     -    0s
     0     0  275.48896    0    2  264.17324  275.48896  4.28%     -    0s
     0     0  275.48201    0    2  264.17324  275.48201  4.28%     -    0s
     0     0  274.59809    0    2  264.17324  274.59809  3.95%     -    0s
     0     0  274.59809    0    2  264.17324  274.59809  3.95%     -    0s
     0     0  274.59809    0    2  264.17324  274.59809  3.95%     -    0s
     0     2  274.59809    0    2  264.17324  274.59809  3.95%     -    1s
*    6     2               3     265.5877904  273.54567  3.00%   512    1s
*    8     2               4     268.9795879  273.05672  1.52%   452    1s
*   12     2               6     272.0367638  272.65178  0.23%   387    1s

Cutting planes:
  Gomory: 3
  MIR: 180
  Flow cover: 18
  RLT: 15

Explored 23 nodes (8945 simplex iterations) in 1.88 seconds (1.48 work units)
Thread count was 20 (of 20 available processors)

Solution count 6: 272.037 268.98 265.588 ... 262.674

Optimal solution found (tolerance 1.00e-04)
Best objective 2.720367637718e+02, best bound 2.720367637718e+02, gap 0.0000%



#########node  1
V1.7
#########node  2
0.0,1.0
#########node  3
0.9490084985835694,0.05099150141643061


Total Solving Time 2.333859443664551
obj value 272.0367637718389
Policy Regret train (Sum) 9.912030792665206
Best Treatment Found train (%) 57.599999999999994
treatment classification acc train (%) 28.799999999999997
Policy Regret test (Sum) 38.72832714295484
Best Treatment Found test (%) 81.04
treatment classification acc test (%) 25.619999999999997
